GLPSOL: GLPK LP/MIP Solver, v4.55
Parameter(s) specified in the command line:
 -m tmp.mod
Reading model section from tmp.mod...
Reading data section from tmp.mod...
7175 lines were read
Generating obj...
Generating kirhoff...
Generating init_charge...
Generating batt_size...
Model has been successfully generated
GLPK Simplex Optimizer, v4.55
8293 rows, 13296 columns, 28272 non-zeros
Preprocessing...
6387 rows, 13108 columns, 27896 non-zeros
Scaling...
 A: min|aij| =  1.000e+00  max|aij| =  1.000e+00  ratio =  1.000e+00
Problem data seem to be well scaled
Constructing initial basis...
Size of triangular part is 5331
      0: obj =   0.000000000e+00  infeas =  6.729e+03 (1056)
    500: obj =   0.000000000e+00  infeas =  6.390e+03 (873)
   1000: obj =   8.950000000e+01  infeas =  3.062e+03 (703)
   1500: obj =   2.010000000e+02  infeas =  2.073e+03 (603)
   2000: obj =   3.370000000e+02  infeas =  9.040e+02 (521)
   2500: obj =   4.130000000e+02  infeas =  2.300e+01 (476)
*  2532: obj =   4.130000000e+02  infeas =  0.000e+00 (472)
*  3000: obj =   2.120000000e+02  infeas =  2.776e-16 (441)
*  3334: obj =   1.500000000e+02  infeas =  0.000e+00 (435)
OPTIMAL LP SOLUTION FOUND
Time used:   1.6 secs
Memory used: 26.0 Mb (27224753 bytes)
#OUTPUT:
150
-100 -57 -2 -6 -4 -17 0 0 -9 0 -9 0 -91 -40 -26 -3 23 -1 9 -3 -11 0 8 -17 -16 17 9 -4 10 0 0 0 10 0 -35 0 0 0 0 12 0 0 0 0 -33 0 9 0 -3 0 -3 6 0 -1 -6 0 -8 -4 0 0 0 0 0 0 0 0 0 0 0 -26 0 0 0 18 0 0 -23 3 0 1 0 3 0 0 0 0 0 0 0 0 0 0 0 0 8 -1 0 0 0 0 -6 0 0 0 0 0 0 -1 0 0 0 0 0 0 0 -28 25 -47 0 0 0 1 0 4 0 0 0 0 0 0 0 0 0 0 0 0 0 0 -6 0 0 0 -60 0 -16 0 0 0 -8 0 0 0 0 0 0 10 6 3 0 2 0 0 0 0 0 -10 0 0 0 0 -50 7 0 0 -1 0 0 -9 0 0 0 0 -8 10 0 63 0 0 0 0 0 0 0 0 -1 0 0 0 0 0 0 0 0 -2 0 0 0 0 0 0 0 0 -24 -4 0 0 0 0 0 13 0 0 0 0 0 0 0 0 0 0 0 0 0 0 0 0 0 8 0 0 0 0 0 0 0 0 0 0 0 3 -8 0 -47 0 0 0 0 0 0 0 0 0 0 0 0 0 0 0 0 0 0 0 0 0 0 0 0 -4 -6 0 0 0 0 26 0 0 0 -2 0 0 0 0 0 13 0 0 0 0 0 0 0 -23 0 -6 0 0 0 0 26 0 0 0 0 0 0 0 0 0 0 0 0 0 0 0 4 0 0 0 0 0 0 0 0 25 0 0 0 0 0 0 0 -1 0 0 0 0 0 0 0 0 0 0 0 0 0 0 0 0 0 0 0 0 0 0 0 0 0 0 0 0 0 0 0 0 3 1 0 0 10 0 -3 0 28 0 0 0 6 0 16 0 0 -2 0 0 -7 0 0 0 -63 1 0 0 0 0 0 24 0 0 0 0 0 0 -8 0 0 0 -3 0 0 0 0 0 0 0 10 13 6 0 -26 0 0 0 0 6 -2 -4 0 -23 -2 0 0 0 1 0 0 0 0 0 0 0 4 -4 0 0 0 -3 0 0 0 0 0 0 0 0 0 0 0 0 0 0 0 0 0 0 0 0 0 0 0 0 0 0 0 0 0 0 0 0 0 0 0 0 0 0 0 0 0 0 0 0 0 0 0 0 0 
-101 -60 -2 8 0 -17 0 0 -16 0 -4 -5 0 0 0 4 -17 0 0 2 0 -10 0 -17 -2 -2 0 0 0 -24 0 -24 0 0 -19 0 0 0 0 -5 0 0 0 -24 -48 0 -17 0 -9 -45 -9 -6 -2 -1 0 2 0 10 2 0 -2 -4 0 0 0 0 -2 0 0 0 0 -10 0 0 0 0 0 0 0 2 4 0 0 0 0 0 0 -45 0 0 0 -2 0 0 0 0 0 0 -31 0 0 0 0 0 0 -4 0 0 0 0 -2 0 0 0 0 0 0 0 0 0 -45 2 0 0 0 0 0 0 2 0 0 0 0 0 0 0 0 0 8 0 0 0 -19 0 -2 0 0 -2 0 2 0 0 -2 0 0 1 1 0 0 2 -20 0 0 0 0 -48 0 0 0 0 0 0 0 0 0 0 0 0 2 0 0 0 0 1 -19 0 0 0 0 0 0 0 0 0 0 0 0 0 0 0 0 0 0 0 0 0 0 0 0 0 0 0 -19 -4 -2 0 0 0 0 -1 0 0 0 0 0 9 0 0 0 0 0 0 0 0 0 0 0 0 0 0 0 0 0 0 0 0 0 -4 0 0 0 0 0 0 0 0 0 0 0 0 0 0 0 0 0 0 0 0 0 0 0 0 0 4 0 0 0 0 -48 0 0 0 0 0 0 0 0 0 0 0 0 0 0 -1 0 -65 2 0 0 0 0 0 0 -1 0 0 0 0 0 0 0 0 0 0 0 0 0 0 0 0 0 0 0 0 0 2 0 0 0 0 0 0 0 0 0 0 0 0 0 0 0 0 0 0 0 0 0 0 0 0 2 0 0 0 0 0 0 0 0 0 0 0 0 0 0 0 0 0 0 0 0 0 0 0 0 1 0 -4 0 0 0 0 0 -2 0 0 -8 0 -3 5 0 -2 -45 0 0 0 0 19 0 0 0 0 0 0 0 19 -9 0 0 0 0 0 0 0 0 4 0 0 0 0 -4 0 -2 0 1 -1 1 0 0 0 0 0 0 0 0 0 -2 0 0 0 0 0 0 0 0 0 0 0 -2 0 0 0 0 0 0 2 0 -2 0 0 0 0 0 0 0 0 0 0 0 0 0 0 0 0 0 0 0 0 0 0 0 0 0 0 0 0 0 0 0 0 0 0 0 0 0 0 0 0 0 0 0 0 0 0 0 
-40 -11 0 0 -4 -7 -3 0 0 0 0 0 -1 -4 -25 0 0 -5 5 0 0 0 0 -4 0 0 5 0 -5 0 0 0 0 0 0 0 0 -5 0 0 0 0 0 0 0 0 0 0 -6 0 -6 0 -3 0 0 0 0 5 0 0 0 0 0 0 0 0 0 0 0 -4 0 0 -4 0 0 0 0 -3 0 0 -1 -3 0 0 0 0 0 0 0 0 0 0 0 -6 0 0 0 0 0 0 -1 0 0 0 0 0 0 0 0 0 3 0 0 0 0 -1 0 0 0 0 0 0 0 -4 0 0 0 0 0 1 0 0 0 0 0 0 0 0 0 0 0 0 0 0 0 0 0 0 0 4 0 0 0 0 0 0 0 -21 0 0 0 0 0 -1 0 0 0 0 0 1 0 0 0 0 0 0 0 0 0 0 0 0 0 0 0 0 0 0 0 0 0 0 0 0 0 0 0 0 -1 0 0 0 0 4 0 0 0 0 0 1 -1 0 0 -4 0 0 0 0 0 0 0 0 0 0 0 9 0 0 0 0 0 0 0 0 0 0 0 0 0 0 0 0 -18 0 0 0 0 0 0 0 0 0 0 0 0 0 0 0 0 0 0 0 0 0 0 0 0 0 0 0 0 0 0 0 0 0 0 -4 0 0 0 0 0 0 0 0 0 0 0 0 0 0 0 0 0 0 0 4 0 0 0 0 0 0 0 0 0 0 0 0 0 0 0 0 0 0 0 0 0 0 0 0 -19 0 0 0 0 0 0 0 0 0 0 0 0 0 0 0 0 0 0 0 0 0 0 0 0 -4 0 0 0 0 0 0 0 0 0 0 0 0 0 0 0 0 8 0 0 1 0 0 0 0 0 0 0 0 0 0 0 0 3 0 1 0 0 0 0 0 0 0 0 0 0 0 0 0 0 0 0 0 1 0 0 -1 1 0 -9 0 0 0 0 0 0 0 0 0 0 0 0 0 0 0 0 0 0 0 0 0 0 0 0 0 0 0 0 0 0 -4 4 0 0 0 0 0 0 0 4 0 0 0 -4 -4 -1 0 0 0 0 0 0 0 0 0 0 0 0 0 0 0 0 0 0 0 0 0 0 0 0 0 0 0 0 0 0 0 0 0 0 0 0 0 0 0 0 0 0 0 0 0 0 0 0 0 0 0 0 
-48 -25 0 0 0 0 6 0 -16 -14 -5 0 -23 0 -6 -1 8 0 0 -5 1 -10 -14 -17 0 -1 0 0 0 0 -20 0 0 0 1 4 0 0 0 -1 0 0 0 0 -43 0 -17 0 -4 -5 -4 0 -1 -9 -6 1 0 0 -2 0 -15 -5 4 0 0 -1 0 0 0 0 -10 -7 0 0 0 0 -43 0 0 0 -3 0 0 0 0 0 0 -5 0 0 0 0 0 0 -14 1 -1 0 10 0 -6 0 0 0 0 -5 0 1 0 -4 -1 0 0 0 0 -3 0 0 0 -14 -5 0 0 0 0 0 0 0 0 0 0 0 0 0 0 0 14 0 0 0 0 0 1 0 0 0 0 -11 0 -3 0 0 0 -1 0 43 0 0 0 0 5 0 14 0 0 0 0 0 0 0 0 0 0 0 1 0 0 0 -2 0 0 0 0 43 1 0 0 0 0 0 0 0 0 0 0 0 0 0 1 -10 0 -30 0 -3 -1 0 0 0 0 0 0 0 0 0 0 0 0 0 0 0 0 0 0 0 1 0 0 0 0 0 0 0 0 0 0 -3 0 0 0 0 0 0 0 0 0 -1 0 0 0 0 0 0 0 0 0 0 0 0 0 0 0 0 0 0 0 0 0 0 0 0 0 0 0 5 0 0 0 0 0 0 0 0 0 0 0 0 0 1 0 0 1 0 0 0 0 0 -2 0 0 0 0 -43 0 0 0 0 0 0 0 0 0 0 0 0 0 0 0 0 -14 3 0 0 0 0 1 0 0 0 0 0 0 0 0 0 0 0 0 -5 0 0 0 0 1 0 0 0 0 0 0 0 0 0 0 0 0 -4 0 0 0 0 0 0 0 0 0 0 0 0 -4 0 0 0 0 0 -6 -1 0 7 0 0 0 3 3 0 0 4 0 -3 0 0 0 0 -5 0 0 0 0 -1 0 0 -1 0 0 0 0 0 -4 0 0 0 0 3 0 0 0 0 0 0 0 0 -5 0 2 0 43 0 0 0 0 0 14 0 -3 0 1 -1 0 0 0 -15 20 0 0 -1 0 0 0 0 0 0 0 0 0 4 0 -5 -3 14 0 0 0 0 0 0 0 0 0 0 0 0 0 0 0 0 0 0 0 0 0 0 0 0 0 0 0 0 0 0 0 0 0 0 0 0 0 0 0 0 0 0 0 0 0 0 0 
-39 -3 0 0 0 0 0 -1 2 0 5 0 -23 0 -6 9 0 10 0 2 0 -3 0 -17 -20 0 -3 0 5 0 -23 0 0 -1 0 7 0 5 0 0 0 0 0 0 0 0 -12 0 -3 0 -3 0 -2 -5 -6 -1 0 10 -1 0 0 0 7 0 13 0 0 0 0 -5 -5 -3 0 0 0 0 0 -14 0 0 0 3 0 0 0 0 0 0 0 0 0 0 0 0 0 0 0 0 -10 0 -6 3 0 0 0 0 0 0 0 0 -2 0 0 0 0 0 0 0 0 0 0 0 0 0 0 0 0 0 0 0 10 0 0 3 0 0 0 0 0 0 0 0 0 0 -20 0 0 2 0 0 0 0 0 0 0 0 0 0 0 0 0 0 0 -5 0 0 0 0 3 5 0 0 0 0 0 0 0 0 -1 0 0 0 0 0 0 0 0 0 0 0 0 0 0 0 0 0 0 0 0 -5 0 0 0 0 0 0 0 0 0 5 0 0 0 0 0 0 0 0 0 0 0 0 0 0 0 0 0 0 0 0 0 0 0 0 0 0 0 0 0 0 0 0 0 0 -22 0 0 0 0 0 0 0 0 0 0 0 0 0 0 0 0 0 0 -22 0 0 0 0 0 0 0 0 0 0 0 0 0 0 0 0 0 0 0 5 0 0 0 0 0 0 0 0 0 0 0 0 -1 0 0 0 -3 0 0 0 0 0 0 0 5 0 0 0 -39 0 0 0 0 0 0 0 0 0 0 0 0 0 0 0 0 0 0 0 0 0 0 0 0 5 0 0 0 0 0 0 0 0 0 0 0 0 0 0 0 0 0 0 0 0 0 0 0 0 0 0 0 0 0 0 0 0 0 0 0 0 -1 0 -13 3 0 0 -3 0 0 0 0 -3 0 0 0 10 10 0 0 0 0 0 0 0 0 0 0 0 0 -5 0 0 0 0 0 0 0 0 0 0 0 0 0 0 -17 0 0 0 -2 3 0 0 0 0 -5 0 0 0 0 0 0 0 0 0 0 0 -5 0 0 0 0 0 0 0 0 0 0 0 0 0 0 2 -3 2 0 0 0 0 0 0 0 0 0 0 0 0 0 0 0 0 0 0 0 0 0 0 0 0 0 0 0 0 0 0 0 0 0 0 0 0 0 0 0 0 0 0 0 0 0 0 0 
-80 -60 2 0 4 10 0 0 0 0 0 1 -29 0 0 0 10 10 0 0 -1 0 0 -17 -24 3 1 0 0 0 -23 0 3 0 0 0 0 0 0 0 -86 0 0 0 -1 0 -6 0 0 0 0 0 1 -78 0 0 0 10 0 0 0 0 0 -86 3 -1 0 0 0 -11 0 0 -4 0 0 0 0 0 0 0 3 0 0 0 0 0 0 0 0 0 0 0 0 0 0 0 -1 0 0 0 0 0 0 0 0 0 0 0 0 3 1 0 0 0 0 0 0 0 0 0 0 0 0 0 0 0 0 0 0 0 10 0 0 0 0 0 0 0 0 0 0 0 0 0 -24 0 0 3 0 0 0 0 0 -1 0 0 1 0 0 0 0 1 0 0 0 -1 0 0 -1 0 0 0 0 0 0 0 0 0 0 0 0 0 0 0 0 0 0 0 0 0 0 0 0 0 0 0 0 0 0 0 0 0 0 0 0 0 0 0 0 0 0 0 1 0 0 0 0 0 0 0 0 0 0 0 0 0 0 0 0 0 0 0 0 0 0 0 0 0 0 0 0 0 0 0 0 0 0 0 0 0 0 0 0 0 0 0 0 0 0 0 0 0 0 0 0 0 0 0 0 0 0 0 0 0 0 0 0 4 -1 0 0 0 0 7 0 0 0 0 0 0 0 0 0 0 0 0 0 4 0 0 1 0 0 -1 0 0 0 0 7 0 0 0 0 0 0 0 0 0 0 0 0 0 0 0 0 0 0 0 0 0 0 0 0 0 0 0 0 0 0 0 0 0 0 0 0 0 0 -4 0 0 0 0 0 0 0 0 0 0 0 0 0 0 0 0 -4 0 0 0 0 0 0 0 0 0 0 -1 -3 0 3 0 0 0 0 0 0 0 0 0 4 10 10 0 0 0 0 0 0 0 -6 0 -1 1 0 0 0 -1 0 0 0 0 0 0 0 0 0 0 0 0 0 0 0 0 1 -1 0 0 1 0 -7 0 0 0 0 0 0 0 0 0 0 0 0 0 0 0 0 0 4 0 0 0 0 4 0 0 0 0 -3 3 0 0 0 0 0 0 0 0 0 0 0 0 0 0 0 0 0 0 0 0 0 0 0 0 0 0 0 0 0 0 0 0 0 0 0 0 0 0 0 0 0 0 0 0 0 0 0 
-101 -54 0 0 -3 -17 -6 2 -12 0 0 -12 -11 0 -10 3 -11 10 0 1 -19 -10 0 -2 -22 19 0 0 0 0 0 0 10 2 -30 2 0 -1 0 2 0 0 0 0 0 0 0 0 0 0 0 2 7 1 -6 0 0 0 0 0 0 0 2 0 2 0 0 0 0 0 0 -10 0 1 0 0 0 0 -1 0 0 0 0 -2 0 0 0 0 0 0 0 -2 0 4 0 0 0 0 -47 0 -6 -1 0 0 0 0 0 0 0 0 3 0 0 0 0 -11 -6 0 0 0 0 0 0 0 0 -2 0 0 2 0 0 0 -4 0 0 0 2 0 0 0 0 0 -24 0 -22 1 0 0 0 4 -1 0 0 0 -1 0 0 0 0 -2 0 0 2 -5 0 0 0 0 0 5 0 0 0 0 0 0 0 0 0 0 0 0 0 0 -24 0 0 0 0 0 0 0 0 0 0 0 1 -2 0 0 0 0 0 6 0 0 1 0 0 5 0 0 -11 0 -2 0 2 0 0 0 0 0 0 0 0 0 -2 0 0 0 0 0 1 0 0 0 0 0 0 0 0 0 1 0 0 0 0 0 0 0 0 0 0 0 0 0 0 0 0 0 0 0 4 0 -1 0 0 0 0 0 0 0 0 0 0 0 0 -3 0 0 0 0 0 0 0 0 0 0 0 1 0 0 0 0 0 0 0 0 0 0 0 0 0 0 0 0 0 0 0 0 0 0 0 0 0 0 0 0 0 0 0 0 0 0 0 2 0 0 0 0 0 0 0 -6 0 0 0 0 0 0 0 0 0 0 0 0 0 0 0 0 6 0 0 0 0 0 0 0 0 0 0 0 0 0 3 0 0 1 0 0 0 0 0 0 -1 -1 0 -10 10 0 0 0 11 0 2 0 0 0 22 0 0 2 0 0 0 0 0 24 0 0 0 0 0 -5 0 11 0 2 0 0 -1 0 0 0 0 0 0 -4 0 1 0 -1 0 0 0 0 0 0 0 0 0 0 0 0 0 0 -2 0 6 0 0 0 0 0 0 0 0 0 -6 0 0 -3 -1 0 0 1 0 0 0 0 0 0 0 0 0 0 0 0 0 0 0 0 0 0 0 0 0 0 0 0 0 0 0 0 0 0 0 0 0 0 0 0 0 0 0 0 0 0 0 0 0 0 0 0 0 
-30 -11 2 0 0 3 0 0 0 16 0 -1 -23 0 0 0 -13 0 0 0 -19 0 0 -17 -25 21 0 0 0 0 0 0 7 0 0 0 0 0 0 0 0 0 0 0 -79 -3 -26 0 0 0 0 0 -1 1 0 0 16 0 0 0 0 0 0 0 0 0 0 0 0 7 0 -3 0 0 0 0 -79 0 0 0 0 0 0 2 0 0 0 0 0 -3 0 0 0 0 0 1 0 0 -13 0 0 0 0 0 0 0 0 1 0 0 -1 0 0 0 0 -7 0 0 0 0 0 0 0 0 0 2 0 0 0 0 0 0 0 0 0 0 0 0 0 0 0 0 0 -3 -25 0 0 0 16 0 0 0 0 0 0 50 0 0 0 0 0 0 0 0 0 0 -1 0 0 0 0 0 0 0 1 0 0 0 1 0 0 0 0 50 0 16 0 0 0 0 0 0 0 0 0 0 0 0 0 0 0 0 0 0 0 0 0 0 0 0 0 0 -16 0 0 0 0 0 -29 0 0 0 0 0 0 0 0 1 0 0 0 0 0 0 0 0 0 0 0 0 0 0 0 0 0 0 0 0 0 0 0 0 0 -95 0 0 0 0 0 0 0 0 0 0 0 0 0 0 0 0 0 0 0 0 0 0 0 0 0 0 0 0 0 -7 0 0 0 0 0 0 0 0 0 0 0 0 1 0 0 0 0 -50 0 0 0 0 0 0 -7 0 0 0 0 0 0 0 0 0 0 0 0 0 0 0 0 0 0 0 0 0 0 0 0 0 0 0 0 0 0 0 0 0 0 -29 0 0 0 0 0 0 0 0 0 0 0 0 0 0 0 0 0 0 0 0 0 0 0 0 0 0 0 0 0 0 0 -1 -2 0 7 0 0 0 7 0 -2 0 0 3 25 0 0 0 0 0 0 0 0 0 -16 0 0 0 0 0 0 16 0 0 -1 0 0 0 0 0 0 0 0 0 0 0 0 0 -1 0 50 0 0 0 7 0 0 0 0 0 0 0 0 0 0 0 0 0 0 0 0 0 0 0 0 0 0 0 0 0 0 0 0 0 0 0 0 0 0 0 0 0 0 0 0 0 0 0 0 0 0 0 0 0 0 0 0 0 0 0 0 0 0 0 0 0 0 0 0 0 0 0 0 0 0 0 0 0 0 0 0 
-32 -32 2 0 0 0 0 0 -2 0 -2 0 -43 0 0 0 0 10 0 0 0 0 -8 0 -9 2 0 0 19 0 0 0 10 0 0 0 0 -6 0 0 0 0 0 0 -19 0 0 0 -4 0 -4 0 0 -32 0 0 8 0 0 0 -29 0 0 0 0 0 1 0 0 0 -33 0 0 25 0 0 -18 0 0 0 0 0 0 0 0 0 0 0 0 0 0 0 0 0 -8 0 0 0 -10 0 0 0 0 0 0 0 0 0 0 0 0 0 0 0 0 -35 0 -19 0 -8 0 0 0 0 0 0 0 0 0 0 0 0 0 0 0 0 10 0 0 0 0 0 0 0 -9 0 0 0 8 0 0 0 0 0 0 18 0 0 0 0 0 0 10 0 0 -1 0 0 0 0 0 0 0 0 0 0 0 0 0 0 0 0 0 18 0 8 0 0 0 0 0 0 0 0 -1 0 0 -2 0 -33 0 0 0 0 0 0 0 0 0 0 0 0 0 -4 0 0 2 0 0 0 0 0 0 0 0 0 -2 0 0 0 0 0 0 0 0 0 0 0 0 19 0 0 0 0 0 0 0 0 0 0 0 0 0 0 0 0 0 0 0 0 0 0 0 0 0 0 0 0 0 0 0 0 0 0 0 0 0 0 0 0 0 0 0 0 -20 0 0 0 0 0 0 0 0 0 0 0 0 0 0 0 0 -18 0 0 0 0 4 0 0 0 0 0 0 0 0 0 0 0 -8 0 0 0 0 0 0 0 0 0 0 0 0 0 0 0 0 0 0 -2 0 0 0 0 0 0 0 0 0 0 0 0 0 0 0 0 0 -4 0 0 0 0 0 0 0 0 0 0 0 0 0 0 0 0 0 0 0 -1 0 0 10 0 0 0 35 1 0 0 0 0 5 4 0 0 0 0 0 0 0 0 -8 1 0 0 0 0 0 0 -4 2 0 0 0 0 0 -19 0 0 0 0 0 0 0 0 0 0 18 0 0 0 0 0 8 0 0 0 0 0 0 0 0 -30 32 0 0 0 0 0 0 0 0 4 0 0 0 0 0 0 0 0 0 0 0 0 0 0 0 0 0 0 0 0 0 0 0 0 0 0 0 0 0 0 0 0 0 0 0 0 0 0 0 0 0 0 0 0 0 0 0 0 0 0 0 0 0 0 0 
-4 0 0 0 0 0 0 0 0 0 0 0 0 0 0 0 0 0 -1 0 0 0 0 -2 -4 0 0 0 -11 0 0 0 0 0 0 0 0 -11 0 0 0 0 0 0 0 0 9 0 0 0 0 0 0 0 0 0 0 0 0 0 0 0 0 0 2 0 0 0 0 -11 0 0 0 0 0 0 0 0 3 0 0 0 0 0 1 0 0 0 0 0 0 0 0 0 0 0 0 0 1 0 0 0 0 0 0 0 0 0 0 0 0 0 0 0 0 0 0 0 0 0 0 0 1 0 0 0 0 0 0 0 0 0 0 0 0 0 0 0 0 0 0 0 0 0 -4 0 0 -2 0 0 0 0 0 0 3 0 0 0 0 0 0 0 0 0 0 0 0 0 -1 0 0 0 0 0 0 0 0 -4 0 0 0 0 0 0 0 0 0 0 0 0 0 0 0 0 0 0 0 0 0 0 0 0 0 0 0 0 0 0 0 0 0 0 0 -4 0 0 0 0 0 0 0 0 0 0 0 0 0 0 0 0 0 0 -3 0 0 0 0 0 0 0 0 0 0 0 0 0 0 0 0 0 0 0 0 0 0 0 0 0 0 0 0 0 0 0 0 0 0 0 0 0 0 0 0 0 0 0 0 0 0 4 0 0 0 11 0 0 0 0 0 0 0 0 0 0 0 0 0 0 0 0 0 0 0 0 0 0 0 0 11 0 0 0 0 0 0 0 0 0 0 0 0 0 0 0 0 0 0 0 0 0 0 0 0 0 0 0 0 0 0 0 0 0 0 0 0 0 0 0 0 0 0 0 0 0 0 0 0 0 0 0 0 0 0 0 0 0 0 0 0 0 0 0 0 4 4 0 -2 0 0 0 0 0 0 0 0 0 0 0 0 4 0 0 0 0 0 0 0 0 0 0 0 0 0 0 0 0 0 0 0 0 3 0 0 0 0 0 0 0 0 0 0 0 0 0 0 0 0 0 -11 0 0 0 0 0 0 0 0 0 0 0 0 0 0 0 0 0 0 0 0 0 0 0 0 0 -4 0 -2 -2 0 0 0 0 0 0 0 0 0 0 0 0 0 0 0 0 0 0 0 0 0 0 0 0 0 0 0 0 0 0 0 0 0 0 0 0 0 0 0 0 0 0 0 0 0 0 0 
-28 -6 0 0 0 -6 -6 0 0 0 0 0 0 0 0 2 0 -10 0 0 0 0 0 -17 0 0 0 0 0 0 0 0 0 0 0 2 0 0 0 3 0 0 0 0 0 0 9 0 0 0 0 0 0 0 0 0 0 0 0 0 0 0 2 0 5 0 0 0 0 -26 0 0 0 0 0 0 0 0 0 0 0 0 0 0 0 0 0 0 0 0 0 0 0 0 0 0 0 0 7 0 0 0 0 0 0 0 0 0 0 0 0 0 0 0 0 0 0 0 0 0 0 0 0 0 0 0 0 0 0 0 0 0 0 0 0 0 0 0 0 0 0 0 0 0 0 0 0 0 0 0 0 0 0 0 0 0 3 -3 0 0 0 0 0 0 0 0 0 0 0 0 0 0 0 0 0 0 0 0 0 0 0 0 0 0 0 0 0 0 0 0 0 0 0 0 0 0 0 0 0 0 0 0 0 0 0 0 0 0 0 0 0 0 0 0 0 0 0 0 0 0 0 0 0 0 0 0 0 0 0 0 0 0 0 0 0 0 0 0 0 0 0 0 0 0 0 0 0 0 0 -3 0 0 0 0 0 0 0 0 0 0 0 0 0 0 0 0 0 0 0 0 0 0 0 0 0 0 0 0 -3 0 0 0 0 -10 0 0 0 0 0 0 0 0 0 0 0 0 0 0 0 0 0 0 0 -3 0 0 0 0 -10 0 0 0 0 0 0 0 0 0 0 -3 0 0 0 0 0 0 0 0 0 0 0 0 0 0 0 0 0 0 0 0 0 0 0 0 0 0 0 0 0 0 0 0 0 0 0 0 0 0 0 0 0 0 0 0 0 0 0 0 0 0 0 0 0 0 0 0 -5 -8 0 0 0 -3 0 0 0 0 0 0 0 0 0 0 0 0 0 0 0 0 0 0 0 0 0 0 0 0 0 0 0 0 0 0 0 0 0 0 3 0 0 0 0 0 0 0 0 0 3 0 -26 0 0 0 3 0 0 0 0 3 -3 0 0 0 0 0 0 0 0 0 0 0 0 0 0 0 0 0 0 0 0 0 0 0 0 0 0 0 0 0 0 0 0 0 0 0 0 0 0 0 0 0 0 0 0 0 0 0 0 0 0 0 0 0 0 0 0 0 0 0 0 0 0 0 0 0 0 
0 0 0 0 0 0 -6 0 0 0 0 0 0 0 0 0 6 0 -9 0 0 0 0 0 -6 0 -9 0 0 0 0 0 0 0 0 0 0 0 0 0 0 0 -64 0 -19 0 0 0 -3 0 -3 0 0 0 0 0 0 10 0 0 0 0 0 0 0 0 0 0 0 0 0 0 0 0 0 0 -19 -14 0 0 0 3 0 0 0 0 0 0 0 0 0 0 0 0 0 0 0 0 15 0 0 0 0 0 0 0 0 0 0 0 0 0 0 0 0 0 0 0 0 0 0 0 0 0 0 0 0 0 0 0 0 0 0 0 0 0 0 0 0 0 0 0 0 0 -6 0 0 0 0 0 0 0 0 0 0 0 0 0 0 0 0 0 0 0 0 0 0 0 0 0 0 0 0 0 0 0 0 0 0 0 0 0 0 0 0 0 0 0 0 0 0 0 0 0 0 0 0 0 0 0 0 0 0 0 0 0 0 0 0 0 0 0 0 4 0 0 0 0 0 19 0 0 0 0 0 0 0 0 0 0 0 0 0 0 0 0 0 0 0 0 0 0 0 0 17 0 0 0 0 0 0 0 0 0 0 0 0 0 0 0 0 0 0 17 0 0 0 0 0 0 0 0 0 0 0 0 0 0 0 0 0 0 0 0 0 0 0 0 0 0 0 0 0 19 0 0 0 0 0 0 0 -19 0 0 0 0 0 0 0 0 0 0 0 0 0 0 0 0 0 0 0 0 0 0 0 0 0 0 0 0 0 0 0 0 0 0 0 0 0 0 0 0 0 0 0 0 0 0 0 0 0 0 0 0 0 0 0 0 0 0 0 0 0 0 0 0 0 0 0 0 0 0 0 0 0 0 0 8 0 0 -3 0 0 0 0 0 0 0 0 6 0 0 0 0 0 0 0 0 0 0 0 0 0 0 0 0 0 0 0 0 0 0 0 0 0 0 0 0 -17 0 0 0 0 0 0 19 0 0 0 0 0 0 0 0 0 0 0 0 0 0 0 0 0 0 0 0 0 0 0 0 0 0 0 0 0 0 0 0 0 0 0 0 0 0 0 0 0 0 0 0 0 0 0 0 0 0 0 0 0 0 0 0 0 0 0 0 0 0 0 0 0 0 0 0 0 0 0 0 0 0 0 0 0 0 0 
#OUTPUT END
Model has been successfully processed
